%
% Problem from SICStus documentation
%    http://www.sics.se/sicstus/docs/4.0.1/html/sicstus/Cumulative-Scheduling.html
% (Also , Nicolas Beldiceanu & Evelyne Contejean: 
%  "Introducing Global Constraints in CHIP", page 3f)
%
% Cf http://www.hakank.org/minizinc/cumulative_test_sicstus.mzn
%
num_jobs = 7;
num_workers = 13;
duration = [16,6,13,7,5,18,4];
resource = [2,9,3,7,10,1,11];
max_time = 30; % optimal: 22
allow_idle = true;
collect_workers = false;
do_precendences = false;
num_precedences = 1;
precedences = array2d(1..num_precedences, 1..2, 
[ 
  0,0 % dummy precedence
]);
